
Gurobi 11.0.3 (linux64) logging started Mon 18 Nov 2024 08:28:53 PM CST

Set parameter LogFile to value "/home/dlcole3/graph_abstraction/hierarchical_graphs/git_storage/CS1/HP_low_reserves/gurobi_logs/serial/logfile_ST8_7.log"

Gurobi 11.0.3 (linux64) logging started Mon 18 Nov 2024 08:30:56 PM CST

Set parameter LogFile to value "/home/dlcole3/graph_abstraction/hierarchical_graphs/git_storage/CS1/HP_low_reserves/gurobi_logs/serial/logfile_ST8_7.log"
Gurobi Optimizer version 11.0.3 build v11.0.3rc0 (linux64 - "Ubuntu 18.04.3 LTS")

CPU model: Intel(R) Xeon(R) CPU E5-2698 v4 @ 2.20GHz, instruction set [SSE2|AVX|AVX2]
Thread count: 40 physical cores, 80 logical processors, using up to 20 threads

Optimize a model with 29168 rows, 50688 columns and 136175 nonzeros
Model fingerprint: 0xeaa586c0
Variable types: 46944 continuous, 3744 integer (3744 binary)
Coefficient statistics:
  Matrix range     [6e-01, 2e+04]
  Objective range  [2e+00, 2e+04]
  Bounds range     [5e-02, 2e+05]
  RHS range        [5e-02, 7e+03]
Presolve removed 14384 rows and 38878 columns
Presolve time: 0.36s
Presolved: 14784 rows, 11810 columns, 62903 nonzeros
Variable types: 8814 continuous, 2996 integer (2996 binary)
Found heuristic solution: objective 179709.08039
Found heuristic solution: objective 176677.83280
Found heuristic solution: objective 148228.56347

Root relaxation: objective 4.901649e+04, 7855 iterations, 0.35 seconds (0.24 work units)

    Nodes    |    Current Node    |     Objective Bounds      |     Work
 Expl Unexpl |  Obj  Depth IntInf | Incumbent    BestBd   Gap | It/Node Time

     0     0 49016.4883    0   14 148228.563 49016.4883  66.9%     -    1s
H    0     0                    148196.35247 49016.4883  66.9%     -    1s
H    0     0                    52526.528995 49016.4883  6.68%     -    1s
     0     0 49169.1501    0   14 52526.5290 49169.1501  6.39%     -    1s
H    0     0                    51744.250470 49169.1501  4.98%     -    1s
H    0     0                    51241.925572 49169.1501  4.05%     -    1s
     0     0 49193.9936    0   14 51241.9256 49193.9936  4.00%     -    2s
     0     0 49193.9936    0    3 51241.9256 49193.9936  4.00%     -    2s
     0     0 49193.9936    0    4 51241.9256 49193.9936  4.00%     -    2s
     0     0 49270.0946    0    5 51241.9256 49270.0946  3.85%     -    2s
H    0     0                    49996.224672 49295.7329  1.40%     -    2s
     0     0 49295.7329    0    5 49996.2247 49295.7329  1.40%     -    2s
H    0     0                    49838.776466 49347.8606  0.99%     -    3s
H    0     0                    49531.978098 49347.8606  0.37%     -    3s
     0     0 49354.4404    0    5 49531.9781 49354.4404  0.36%     -    3s
H    0     0                    49529.319675 49397.6092  0.27%     -    3s
H    0     0                    49523.091699 49397.6092  0.25%     -    3s

Cutting planes:
  Gomory: 3

Explored 1 nodes (14345 simplex iterations) in 3.22 seconds (1.86 work units)
Thread count was 20 (of 80 available processors)

Solution count 10: 49523.1 49523.1 49532 ... 179709

Optimal solution found (tolerance 3.00e-03)
Best objective 4.952309170068e+04, best bound 4.939760921572e+04, gap 0.2534%

User-callback calls 1618, time in user-callback 0.00 sec
